Sygus -> Z3 Checker scheme:

(set-logic LIA)

<define inv-f function here <- from llm> - let inv-f have n arguments. I'm assuming all input arguments will be Int Sort

<copy paste definitions of pre-f, trans-f, post-f verbatim here from sygus problem file>

(assert (exists ((v1 Int)....(vn Int))
    (not (=> 
        (pre-f v1 v2 v3 v4 v5 v6 v7 v8 v9 v10 .. vn) 
        (inv-f v1 v2 v3 v4 v5 v6 v7 v8 v9 v10 .. vn)
    ))
))
(assert (exists ((v1 Int)....(vn Int)(v1! Int)....(vn! Int))
    (not (=>
        (and 
            (inv-f v1 v2 v3 v4 v5 v6 v7 v8 v9 v10 .. vn)
            (trans-f v1 v2 v3 v4 v5 v6 v7 v8 v9 v10! .. vn v1! v2! v3! v4! v5! v6! v7! v8! v9! v10! .. vn!)
        )
        (inv-f v1! v2! v3! v4! v5! v6! v7! v8! v9! v10! .. vn!)
    ))
))
(assert (exists ((v1 Int)....(vn Int))
    (not (=> 
        (inv-f v1 v2 v3 v4 v5 v6 v7 v8 v9 v10 .. vn) 
        (post-f v1 v2 v3 v4 v5 v6 v7 v8 v9 v10 .. vn)
    ))
))


(check-sat)